networks/zoo_112_2464/zoo_112_2464-lower.sol
<?xml version = "1.0" encoding="UTF-8" standalone="yes"?>
<CPLEXSolution version="1.2">
 <header
   problemName="networks/zoo_112_2464/zoo_112_2464-lower.lp"
   solutionName="incumbent"
   solutionIndex="-1"
   objectiveValue="55"
   solutionTypeValue="3"
   solutionTypeString="primal"
   solutionStatusValue="101"
   solutionStatusString="integer optimal solution"
   solutionMethodString="mip"
   primalFeasible="1"
   dualFeasible="1"
   MIPNodes="0"
   MIPIterations="0"
   writeLevel="3"/>
 <quality
   epInt="1.0000000000000001e-05"
   epRHS="9.9999999999999995e-07"
   maxIntInfeas="0"
   maxPrimalInfeas="0"
   maxX="1"
   maxSlack="1"/>
 <variables>
  <variable name="Y(1,2)" index="1" value="1"/>
  <variable name="Y(2,3)" index="113" value="1"/>
  <variable name="Y(3,4)" index="225" value="1"/>
  <variable name="Y(4,5)" index="337" value="1"/>
  <variable name="Y(5,6)" index="449" value="1"/>
  <variable name="Y(6,7)" index="561" value="1"/>
  <variable name="Y(7,8)" index="673" value="1"/>
  <variable name="Y(8,9)" index="785" value="1"/>
  <variable name="Y(9,10)" index="897" value="1"/>
  <variable name="Y(10,11)" index="1009" value="1"/>
  <variable name="Y(11,12)" index="1121" value="1"/>
  <variable name="Y(12,13)" index="1233" value="1"/>
  <variable name="Y(13,14)" index="1345" value="1"/>
  <variable name="Y(14,16)" index="1458" value="1"/>
  <variable name="Y(15,17)" index="1570" value="1"/>
  <variable name="Y(16,18)" index="1682" value="1"/>
  <variable name="Y(17,19)" index="1794" value="1"/>
  <variable name="Y(18,20)" index="1906" value="1"/>
  <variable name="Y(19,21)" index="2018" value="1"/>
  <variable name="Y(20,22)" index="2130" value="1"/>
  <variable name="Y(21,23)" index="2242" value="1"/>
  <variable name="Y(22,24)" index="2354" value="1"/>
  <variable name="Y(23,25)" index="2466" value="1"/>
  <variable name="Y(24,26)" index="2578" value="1"/>
  <variable name="Y(25,27)" index="2690" value="1"/>
  <variable name="Y(26,28)" index="2802" value="1"/>
  <variable name="Y(27,29)" index="2914" value="1"/>
  <variable name="Y(28,30)" index="3026" value="1"/>
  <variable name="Y(29,31)" index="3138" value="1"/>
  <variable name="Y(30,32)" index="3250" value="1"/>
  <variable name="Y(31,33)" index="3362" value="1"/>
  <variable name="Y(32,34)" index="3474" value="1"/>
  <variable name="Y(33,35)" index="3586" value="1"/>
  <variable name="Y(34,36)" index="3698" value="1"/>
  <variable name="Y(35,37)" index="3810" value="1"/>
  <variable name="Y(36,38)" index="3922" value="1"/>
  <variable name="Y(37,39)" index="4034" value="1"/>
  <variable name="Y(38,40)" index="4146" value="1"/>
  <variable name="Y(39,41)" index="4258" value="1"/>
  <variable name="Y(40,42)" index="4370" value="1"/>
  <variable name="Y(41,44)" index="4483" value="1"/>
  <variable name="Y(42,45)" index="4595" value="1"/>
  <variable name="Y(43,46)" index="4707" value="1"/>
  <variable name="Y(44,47)" index="4819" value="1"/>
  <variable name="Y(45,48)" index="4931" value="1"/>
  <variable name="Y(46,49)" index="5043" value="1"/>
  <variable name="Y(47,50)" index="5155" value="1"/>
  <variable name="Y(48,51)" index="5267" value="1"/>
  <variable name="Y(49,52)" index="5379" value="1"/>
  <variable name="Y(50,53)" index="5491" value="1"/>
  <variable name="Y(51,54)" index="5603" value="1"/>
  <variable name="Y(52,55)" index="5715" value="1"/>
  <variable name="Y(53,1)" index="5772" value="1"/>
  <variable name="Y(261,56)" index="28915" value="1"/>
  <variable name="Y(573,43)" index="63534" value="1"/>
  <variable name="X(1,31,1)" index="273504" value="1"/>
  <variable name="X(1,57,53)" index="276020" value="1"/>
  <variable name="X(2,5,53)" index="278484" value="1"/>
  <variable name="X(2,58,1)" index="280896" value="1"/>
  <variable name="X(3,31,105)" index="283464" value="1"/>
  <variable name="X(3,59,2)" index="285825" value="1"/>
  <variable name="X(4,33,157)" index="288444" value="1"/>
  <variable name="X(4,60,3)" index="290754" value="1"/>
  <variable name="X(5,2,1)" index="293216" value="1"/>
  <variable name="X(5,8,7)" index="295686" value="1"/>
  <variable name="X(5,9,60)" index="298203" value="1"/>
  <variable name="X(5,51,53)" index="300660" value="1"/>
  <variable name="X(5,61,4)" index="303075" value="1"/>
  <variable name="X(6,51,262)" index="305797" value="1"/>
  <variable name="X(6,62,5)" index="308004" value="1"/>
  <variable name="X(7,41,195)" index="310658" value="1"/>
  <variable name="X(7,51,315)" index="313242" value="1"/>
  <variable name="X(7,63,6)" index="315397" value="1"/>
  <variable name="X(8,5,365)" index="318220" value="1"/>
  <variable name="X(8,64,7)" index="320326" value="1"/>
  <variable name="X(9,5,393)" index="323176" value="1"/>
  <variable name="X(9,10,9)" index="325256" value="1"/>
  <variable name="X(9,20,10)" index="327721" value="1"/>
  <variable name="X(9,40,90)" index="330265" value="1"/>
  <variable name="X(9,41,39)" index="332678" value="1"/>
  <variable name="X(9,42,92)" index="335195" value="1"/>
  <variable name="X(9,51,392)" index="337959" value="1"/>
  <variable name="X(9,65,8)" index="340039" value="1"/>
  <variable name="X(10,9,445)" index="342940" value="1"/>
  <variable name="X(10,66,9)" index="344968" value="1"/>
  <variable name="X(11,19,453)" index="347876" value="1"/>
  <variable name="X(11,67,10)" index="349897" value="1"/>
  <variable name="X(12,26,502)" index="352853" value="1"/>
  <variable name="X(12,68,11)" index="354826" value="1"/>
  <variable name="X(13,26,11)" index="357290" value="1"/>
  <variable name="X(13,30,66)" index="359809" value="1"/>
  <variable name="X(13,31,53)" index="362260" value="1"/>
  <variable name="X(13,42,8)" index="364679" value="1"/>
  <variable name="X(13,45,15)" index="367150" value="1"/>
  <variable name="X(13,51,1)" index="369600" value="1"/>
  <variable name="X(13,53,50)" index="372113" value="1"/>
  <variable name="X(13,69,12)" index="374539" value="1"/>
  <variable name="X(14,31,587)" index="377578" value="1"/>
  <variable name="X(14,32,30)" index="379485" value="1"/>
  <variable name="X(14,33,588)" index="382507" value="1"/>
  <variable name="X(14,49,46)" index="384429" value="1"/>
  <variable name="X(14,54,51)" index="386898" value="1"/>
  <variable name="X(14,70,13)" index="389324" value="1"/>
  <variable name="X(15,30,635)" index="392410" value="1"/>
  <variable name="X(16,30,695)" index="394934" value="1"/>
  <variable name="X(16,52,665)" index="397368" value="1"/>
  <variable name="X(16,72,14)" index="399181" value="1"/>
  <variable name="X(17,20,743)" index="402374" value="1"/>
  <variable name="X(17,37,35)" index="404130" value="1"/>
  <variable name="X(17,39,37)" index="406596" value="1"/>
  <variable name="X(17,45,486)" index="409509" value="1"/>
  <variable name="X(17,51,733)" index="412220" value="1"/>
  <variable name="X(17,73,15)" index="413966" value="1"/>
  <variable name="X(18,20,785)" index="417200" value="1"/>
  <variable name="X(18,74,16)" index="418895" value="1"/>
  <variable name="X(19,11,10)" index="421353" value="1"/>
  <variable name="X(19,20,453)" index="424260" value="1"/>
  <variable name="X(19,75,17)" index="426288" value="1"/>
  <variable name="X(20,9,453)" index="429188" value="1"/>
  <variable name="X(20,17,467)" index="431666" value="1"/>
  <variable name="X(20,18,16)" index="433679" value="1"/>
  <variable name="X(20,19,10)" index="436137" value="1"/>
  <variable name="X(20,21,19)" index="438610" value="1"/>
  <variable name="X(20,22,20)" index="441075" value="1"/>
  <variable name="X(20,76,18)" index="443537" value="1"/>
  <variable name="X(21,20,902)" index="446885" value="1"/>
  <variable name="X(21,77,19)" index="448466" value="1"/>
  <variable name="X(22,20,945)" index="451856" value="1"/>
  <variable name="X(22,78,20)" index="453395" value="1"/>
  <variable name="X(23,33,994)" index="456833" value="1"/>
  <variable name="X(23,79,21)" index="458324" value="1"/>
  <variable name="X(24,33,1046)" index="461813" value="1"/>
  <variable name="X(24,80,22)" index="463253" value="1"/>
  <variable name="X(25,51,1098)" index="466793" value="1"/>
  <variable name="X(25,81,23)" index="468182" value="1"/>
  <variable name="X(26,12,11)" index="470634" value="1"/>
  <variable name="X(26,13,502)" index="473589" value="1"/>
  <variable name="X(26,27,25)" index="475576" value="1"/>
  <variable name="X(26,55,521)" index="478536" value="1"/>
  <variable name="X(26,82,24)" index="480503" value="1"/>
  <variable name="X(27,26,1199)" index="484142" value="1"/>
  <variable name="X(27,83,25)" index="485432" value="1"/>
  <variable name="X(28,30,1221)" index="489092" value="1"/>
  <variable name="X(28,84,26)" index="490361" value="1"/>
  <variable name="X(29,30,1270)" index="494069" value="1"/>
  <variable name="X(29,85,27)" index="495290" value="1"/>
  <variable name="X(30,13,636)" index="498363" value="1"/>
  <variable name="X(30,16,14)" index="500205" value="1"/>
  <variable name="X(30,28,26)" index="502681" value="1"/>
  <variable name="X(30,29,27)" index="505146" value="1"/>
  <variable name="X(30,31,635)" index="508218" value="1"/>
  <variable name="X(30,86,28)" index="510075" value="1"/>
  <variable name="X(31,1,53)" index="512564" value="1"/>
  <variable name="X(31,3,2)" index="514977" value="1"/>
  <variable name="X(31,13,1)" index="517440" value="1"/>
  <variable name="X(31,14,13)" index="519916" value="1"/>
  <variable name="X(31,30,14)" index="522381" value="1"/>
  <variable name="X(31,33,3)" index="524834" value="1"/>
  <variable name="X(31,48,45)" index="527340" value="1"/>
  <variable name="X(31,52,49)" index="529808" value="1"/>
  <variable name="X(31,87,29)" index="532252" value="1"/>
  <variable name="X(32,14,1427)" index="536114" value="1"/>
  <variable name="X(32,88,30)" index="537181" value="1"/>
  <variable name="X(33,4,3)" index="539618" value="1"/>
  <variable name="X(33,14,65)" index="542144" value="1"/>
  <variable name="X(33,23,21)" index="544564" value="1"/>
  <variable name="X(33,24,22)" index="547029" value="1"/>
  <variable name="X(33,31,157)" index="549628" value="1"/>
  <variable name="X(33,34,32)" index="551967" value="1"/>
  <variable name="X(33,35,33)" index="554432" value="1"/>
  <variable name="X(33,36,34)" index="556897" value="1"/>
  <variable name="X(33,47,44)" index="559371" value="1"/>
  <variable name="X(33,51,158)" index="561949" value="1"/>
  <variable name="X(33,52,101)" index="564356" value="1"/>
  <variable name="X(33,89,31)" index="566750" value="1"/>
  <variable name="X(34,33,1519)" index="570702" value="1"/>
  <variable name="X(34,52,1533)" index="573180" value="1"/>
  <variable name="X(34,90,32)" index="574143" value="1"/>
  <variable name="X(35,33,1571)" index="578146" value="1"/>
  <variable name="X(35,55,208)" index="579247" value="1"/>
  <variable name="X(35,91,33)" index="581536" value="1"/>
  <variable name="X(36,33,1621)" index="585588" value="1"/>
  <variable name="X(36,50,47)" index="586478" value="1"/>
  <variable name="X(36,55,1632)" index="590527" value="1"/>
  <variable name="X(36,92,34)" index="591393" value="1"/>
  <variable name="X(37,17,1669)" index="595492" value="1"/>
  <variable name="X(37,93,35)" index="596322" value="1"/>
  <variable name="X(38,45,1717)" index="600468" value="1"/>
  <variable name="X(38,94,36)" index="601251" value="1"/>
  <variable name="X(39,17,1743)" index="605422" value="1"/>
  <variable name="X(39,95,37)" index="606180" value="1"/>
  <variable name="X(40,9,1790)" index="610397" value="1"/>
  <variable name="X(40,51,1789)" index="612860" value="1"/>
  <variable name="X(40,96,38)" index="613573" value="1"/>
  <variable name="X(41,7,398)" index="616397" value="1"/>
  <variable name="X(41,9,322)" index="618785" value="1"/>
  <variable name="X(41,97,39)" index="620966" value="1"/>
  <variable name="X(42,9,8)" index="623399" value="1"/>
  <variable name="X(42,13,1888)" index="627743" value="1"/>
  <variable name="X(42,56,261)" index="628580" value="1"/>
  <variable name="X(42,98,40)" index="630823" value="1"/>
  <variable name="X(43,45,1918)" index="635165" value="1"/>
  <variable name="X(43,99,573)" index="636284" value="1"/>
  <variable name="X(44,45,1966)" index="640141" value="1"/>
  <variable name="X(44,100,41)" index="640680" value="1"/>
  <variable name="X(45,13,1717)" index="644820" value="1"/>
  <variable name="X(45,17,15)" index="645582" value="1"/>
  <variable name="X(45,38,36)" index="648067" value="1"/>
  <variable name="X(45,43,573)" index="651068" value="1"/>
  <variable name="X(45,44,41)" index="653000" value="1"/>
  <variable name="X(45,46,43)" index="655466" value="1"/>
  <variable name="X(45,101,42)" index="657929" value="1"/>
  <variable name="X(46,45,2029)" index="662380" value="1"/>
  <variable name="X(46,102,43)" index="662858" value="1"/>
  <variable name="X(47,33,2037)" index="667316" value="1"/>
  <variable name="X(47,103,44)" index="667787" value="1"/>
  <variable name="X(48,31,2086)" index="672293" value="1"/>
  <variable name="X(48,104,45)" index="672716" value="1"/>
  <variable name="X(49,14,2138)" index="677273" value="1"/>
  <variable name="X(49,105,46)" index="677645" value="1"/>
  <variable name="X(50,36,2186)" index="682249" value="1"/>
  <variable name="X(50,106,47)" index="682574" value="1"/>
  <variable name="X(51,5,1)" index="684992" value="1"/>
  <variable name="X(51,6,5)" index="687460" value="1"/>
  <variable name="X(51,7,6)" index="689925" value="1"/>
  <variable name="X(51,9,164)" index="692547" value="1"/>
  <variable name="X(51,13,53)" index="694900" value="1"/>
  <variable name="X(51,17,67)" index="697378" value="1"/>
  <variable name="X(51,25,23)" index="699798" value="1"/>
  <variable name="X(51,33,55)" index="702294" value="1"/>
  <variable name="X(51,40,38)" index="704741" value="1"/>
  <variable name="X(51,55,52)" index="707219" value="1"/>
  <variable name="X(51,107,48)" index="709679" value="1"/>
  <variable name="X(52,16,170)" index="712265" value="1"/>
  <variable name="X(52,31,684)" index="715243" value="1"/>
  <variable name="X(52,33,685)" index="717708" value="1"/>
  <variable name="X(52,34,665)" index="720152" value="1"/>
  <variable name="X(52,108,49)" index="722000" value="1"/>
  <variable name="X(53,13,2313)" index="726728" value="1"/>
  <variable name="X(53,109,50)" index="726929" value="1"/>
  <variable name="X(54,14,2364)" index="731707" value="1"/>
  <variable name="X(54,110,51)" index="731858" value="1"/>
  <variable name="X(55,26,1582)" index="735853" value="1"/>
  <variable name="X(55,35,521)" index="737256" value="1"/>
  <variable name="X(55,36,522)" index="739721" value="1"/>
  <variable name="X(55,51,2403)" index="744066" value="1"/>
  <variable name="X(55,111,52)" index="744179" value="1"/>
  <variable name="X(56,42,2455)" index="749046" value="1"/>
  <variable name="X(56,112,261)" index="749316" value="1"/>
 </variables>
</CPLEXSolution>
